# AMPL MODEL: ./res/solid.ampl

# Timestamp: 17 February 2025, 10:28:16 AM

param MAXWORK := 32;

param:
TNAME: TWORK :=
'delta2.pf' 40
'delta2.pm' 120
'echo2.pf' 40
'echo2.pm' 80
'foxtrot2.pf' 20
'foxtrot2.pm' 40
'gamma2.pf' 40
'gamma2.pm' 60
'golf2.pf' 60
'golf2.pm' 160
'hotel2.pf' 20
'hotel2.pm' 40
'tango2.pe' 200
'tango2.pf' 120
'tango2.pm' 600
'uniform2.pe' 200
'uniform2.pf' 80
'uniform2.pm' 640;

set TSCOPE['delta2.pf'] :=
175 176 177 178 179 182 183
;

set TSCOPE['delta2.pm'] :=
3 4 7 8 9 10 11 14 15 16 17 18 21 22 23 24 25 28 29 30 31 32 35 36 37 38 39 42 43 44 45 46 49 50 51 52 53 56 57 58 59 60 63 64 65 66 67 70 71 72
73 74 77 78 79 80 81 84 85 86 87 88 91 92 93 94 95 98 99 100 101 102 105 106 107 108 109 112 113 114 115 116 119 120 121 123 126 127 128 129 130 133 134 135 136 137 140 141 142 143
144 147 148 149 150 151 154 155 156 157 158 161 162 163 164 165 168 169 170 171 172
;

set TSCOPE['echo2.pf'] :=
23 24 25 28 29 30 31 32 35 36 37 38 39 42 43 44 45 46 49 50 51 52 53 56 57 58 59 60 63 64 65 66 67 70
;

set TSCOPE['echo2.pm'] :=
3 4 7 8 9 10 11 14 15 16 17 18 21 22
;

set TSCOPE['foxtrot2.pf'] :=
84 85 86 87 88 91 92
;

set TSCOPE['foxtrot2.pm'] :=
3 4 7 8 9 10 11 14 15 16 17 18 21 22 23 24 25 28 29 30 31 32 35 36 37 38 39 42 43 44 45 46 49 50 51 52 53 56 57 58 59 60 63 64 65 66 67 70 71 72
73 74 77 78 79 80 81
;

set TSCOPE['gamma2.pf'] :=
23 24 25 28 29 30 31 32 35
;

set TSCOPE['gamma2.pm'] :=
3 4 7 8 9 10 11 14 15 16 17 18 21 22
;

set TSCOPE['golf2.pf'] :=
84 85 86 87 88 91
;

set TSCOPE['golf2.pm'] :=
3 4 7 8 9 10 11 14 15 16 17 18 21 22 23 24 25 28 29 30 31 32 35 36 37 38 39 42 43 44 45 46 49 50 51 52 53 56 57 58 59 60 63 64 65 66 67 70 71 72
73 74 77 78 79 80 81
;

set TSCOPE['hotel2.pf'] :=
49 50 51 52 53 56 57
;

set TSCOPE['hotel2.pm'] :=
3 4 7 8 9 10 11 14 15 16 17 18 21 22 23 24 25 28 29 30 31 32 35 36 37 38 39 42 43 44 45 46
;

set TSCOPE['tango2.pe'] :=
35 36 37 38 39 42 43 44 45 46
;

set TSCOPE['tango2.pf'] :=
260 261 262 263 266 267 268 269 270 273 274 275
;

set TSCOPE['tango2.pm'] :=
49 50 51 52 53 56 57 58 59 60 63 64 65 66 67 70 71 72 73 74 77 78 79 80 81 84 85 86 87 88 91 92 93 94 95 98 99 100 101 102 105 106 107 108 109 112 113 114 115 116
119 120 121 123 126 127 128 129 130 133 134 135 136 137 140 141 142 143 144 147 148 149 150 151 154 155 156 157 158 161 162 163 164 165 168 169 170 171 172 175 176 177 178 179 182 183 184 185 186 189
190 191 192 193 196 197 198 199 200 203 204 205 206 207 210 211 212 213 214 217 218 219 220 221 224 225 226 227 228 231 232 233 234 235 238 239 240 241 242 245 246 247 248 249 252 253 254 255 256 259
;

set TSCOPE['uniform2.pe'] :=
123 126 127 128 129 130 133 134 135 136 137
;

set TSCOPE['uniform2.pf'] :=
409 410 413 414 415 416 417 420 421 422 423 424 427
;

set TSCOPE['uniform2.pm'] :=
140 141 142 143 144 147 148 149 150 151 154 155 156 157 158 161 162 163 164 165 168 169 170 171 172 175 176 177 178 179 182 183 184 185 186 189 190 191 192 193 196 197 198 199 200 203 204 205 206 207
210 211 212 213 214 217 218 219 220 221 224 225 226 227 228 231 232 233 234 235 238 239 240 241 242 245 246 247 248 249 252 253 254 255 256 259 260 261 262 263 266 267 268 269 270 273 274 275 276 277
280 281 282 283 284 287 288 289 290 291 294 295 296 297 298 301 302 303 304 305 308 309 310 311 312 315 316 317 318 319 322 323 324 325 326 329 330 331 332 333 336 337 338 339 340 343 344 345 346 347
350 351 352 353 354 357 358 359 360 361 364 365 366 367 368 371 372 373 374 375 378 379 380 381 382 385 386 387 388 389 392 393 394 395 396 399 400 401 402 403 406 407 408
;

set ENAME :=
'PM.Anthony';

set ASSIGN :=
('PM.Anthony',*)
'delta2.pf'
'delta2.pm'
'echo2.pf'
'echo2.pm'
'foxtrot2.pf'
'foxtrot2.pm'
'gamma2.pf'
'gamma2.pm'
'golf2.pf'
'golf2.pm'
'hotel2.pf'
'hotel2.pm'
'tango2.pe'
'tango2.pf'
'tango2.pm'
'uniform2.pe'
'uniform2.pf'
'uniform2.pm';

param:
XBID: XBEXPERT XBTASK XBS XBE XBL XBU :=
1 'PM.Anthony' 'delta2.pf' 173 183 5 6
2 'PM.Anthony' 'delta2.pm' 2 172 0 1
3 'PM.Anthony' 'echo2.pf' 23 70 1 2
4 'PM.Anthony' 'echo2.pm' 2 22 5 6
5 'PM.Anthony' 'foxtrot2.pf' 83 92 2 3
6 'PM.Anthony' 'foxtrot2.pm' 2 82 0 1
7 'PM.Anthony' 'gamma2.pf' 23 35 4 5
8 'PM.Anthony' 'gamma2.pm' 2 22 4 5
9 'PM.Anthony' 'golf2.pf' 83 91 10 11
10 'PM.Anthony' 'golf2.pm' 2 82 2 3
11 'PM.Anthony' 'hotel2.pf' 48 57 2 3
12 'PM.Anthony' 'hotel2.pm' 2 47 1 2
13 'PM.Anthony' 'tango2.pe' 33 48 20 21
14 'PM.Anthony' 'tango2.pf' 260 275 10 11
15 'PM.Anthony' 'tango2.pm' 49 259 4 5
16 'PM.Anthony' 'uniform2.pe' 122 137 18 19
17 'PM.Anthony' 'uniform2.pf' 409 427 6 7
18 'PM.Anthony' 'uniform2.pm' 138 408 3 4;

param:
EBID: EBEXPERT EBS EBE EBL EBU :=
;

param:
PNAME: PERS PERE :=
'Jan.25' 1 16
'Feb.25' 17 45
'Mar.25' 46 76
'Apr.25' 77 105
'May.25' 106 139
'Jun.25' 140 170
'Jul.25' 171 199
'Aug.25' 200 230
'Sep.25' 231 259
'Oct.25' 260 289
'Nov.25' 290 317
'Dec.25' 318 346;

param:
EXPPER: PBL PBU :=
['PM.Anthony',*]
'Apr.25' 0 720
'Aug.25' 0 720
'Dec.25' 0 720
'Feb.25' 0 720
'Jan.25' 0 720
'Jul.25' 0 720
'Jun.25' 0 720
'Mar.25' 0 720
'May.25' 0 720
'Nov.25' 0 720
'Oct.25' 0 720
'Sep.25' 0 720;

